233241
233241
231615
231615
231615
231615
231615
231615
230840
230840
228541
226840
224202
224202
224119
224119
223293
223207
223207
221458
221458
221458
221458
219936
219936
219936
219936
219936
218765
218765
216001
216001
216001
216001
216001
216001
216001
216001
216001
216001
216001
216001
216001
216001
216001
216001
216001
216001
216001
216001
216001
216001
216001
216001
216001
216001
215958
215958
215958
215958
215958
215958
215958
215958
215510
215510
215510
215510
215436
215436
215436
215436
215436
215436
215436
215436
215436
215436
215436
215436
215436
215436
215436
215436
215436
215436
215436
214402
214402
214402
214402
214402
214402
214402
214402
214402
214402
214402
214402
214402
